NAME          ClpDefau  FREE
ROWS
 N  OBJROW
 L  ZMUNI1_PCT
 L  ZMUNI2_PCT
 L  ZMUNI3_PCT
 L  ZMUNI4_PCT
 L  ZMUNI5_PCT
 L  ZMUNI6_PCT
 L  ZMUNI7_PCT
 L  ZMUNI8_PCT
 L  ZMUNI9_PCT
COLUMNS
    QMUNI1 OBJROW 1.          
    QMUNI1 ZMUNI1_PCT 28386.11603 
    QMUNI1 ZMUNI2_PCT 2276.839316 
    QMUNI1 ZMUNI3_PCT 4869.34186  
    QMUNI1 ZMUNI4_PCT 3549.67117  
    QMUNI1 ZMUNI5_PCT 482.60689   
    QMUNI1 ZMUNI6_PCT 703.14407   
    QMUNI1 ZMUNI7_PCT 2310.56213  
    QMUNI1 ZMUNI8_PCT 2162.93335  
    QMUNI1 ZMUNI9_PCT 1598.20318  
    QMUNI2 OBJROW 1.          
    QMUNI2 ZMUNI1_PCT 2033.18596  
    QMUNI2 ZMUNI2_PCT 32722.839713
    QMUNI2 ZMUNI3_PCT 2883.38662  
    QMUNI2 ZMUNI4_PCT 2958.20236  
    QMUNI2 ZMUNI5_PCT 272.39323   
    QMUNI2 ZMUNI6_PCT 337.45765   
    QMUNI2 ZMUNI7_PCT 1203.72772  
    QMUNI2 ZMUNI8_PCT 1495.21828  
    QMUNI2 ZMUNI9_PCT 1391.29162  
    QMUNI3 OBJROW 1.          
    QMUNI3 ZMUNI1_PCT 4589.1285   
    QMUNI3 ZMUNI2_PCT 2867.724001 
    QMUNI3 ZMUNI3_PCT 29501.15204 
    QMUNI3 ZMUNI4_PCT 5402.18353  
    QMUNI3 ZMUNI5_PCT 427.05536   
    QMUNI3 ZMUNI6_PCT 557.8041    
    QMUNI3 ZMUNI7_PCT 1927.08969  
    QMUNI3 ZMUNI8_PCT 1945.16182  
    QMUNI3 ZMUNI9_PCT 1316.13016  
    QMUNI4 OBJROW 1.          
    QMUNI4 ZMUNI1_PCT 3841.06636  
    QMUNI4 ZMUNI2_PCT 3520.190716 
    QMUNI4 ZMUNI3_PCT 6154.71602  
    QMUNI4 ZMUNI4_PCT 100370.31174
    QMUNI4 ZMUNI5_PCT 452.51847   
    QMUNI4 ZMUNI6_PCT 570.48797   
    QMUNI4 ZMUNI7_PCT 1962.08954  
    QMUNI4 ZMUNI8_PCT 2160.12001  
    QMUNI4 ZMUNI9_PCT 1937.49666  
    QMUNI5 OBJROW 1.          
    QMUNI5 ZMUNI1_PCT 188.04074   
    QMUNI5 ZMUNI2_PCT 64.787268   
    QMUNI5 ZMUNI3_PCT 139.72521   
    QMUNI5 ZMUNI4_PCT 104.2366    
    QMUNI5 ZMUNI5_PCT 30289.14929 
    QMUNI5 ZMUNI6_PCT 2665.90118  
    QMUNI5 ZMUNI7_PCT 216.57944   
    QMUNI5 ZMUNI8_PCT 129.93813   
    QMUNI5 ZMUNI9_PCT 104.88033   
    QMUNI6 OBJROW 1.          
    QMUNI6 ZMUNI1_PCT 281.83461   
    QMUNI6 ZMUNI2_PCT 69.524348   
    QMUNI6 ZMUNI3_PCT 195.12177   
    QMUNI6 ZMUNI4_PCT 129.03213   
    QMUNI6 ZMUNI5_PCT 2586.41243  
    QMUNI6 ZMUNI6_PCT 29889.67895 
    QMUNI6 ZMUNI7_PCT 388.24082   
    QMUNI6 ZMUNI8_PCT 190.44876   
    QMUNI6 ZMUNI9_PCT 20.45631    
    QMUNI7 OBJROW 1.          
    QMUNI7 ZMUNI1_PCT 1751.51825  
    QMUNI7 ZMUNI2_PCT 1088.090241 
    QMUNI7 ZMUNI3_PCT 1558.97141  
    QMUNI7 ZMUNI4_PCT 1190.75775  
    QMUNI7 ZMUNI5_PCT 437.56962   
    QMUNI7 ZMUNI6_PCT 657.41539   
    QMUNI7 ZMUNI7_PCT 26160.14481 
    QMUNI7 ZMUNI8_PCT 2724.07532  
    QMUNI7 ZMUNI9_PCT 1262.86745  
    QMUNI8 OBJROW 1.          
    QMUNI8 ZMUNI1_PCT 1248.71731  
    QMUNI8 ZMUNI2_PCT 995.828211  
    QMUNI8 ZMUNI3_PCT 1251.63794  
    QMUNI8 ZMUNI4_PCT 957.96585   
    QMUNI8 ZMUNI5_PCT 313.68733   
    QMUNI8 ZMUNI6_PCT 398.25439   
    QMUNI8 ZMUNI7_PCT 2338.88626  
    QMUNI8 ZMUNI8_PCT 25212.24022 
    QMUNI8 ZMUNI9_PCT 1290.66705  
    QMUNI9 OBJROW 1.          
    QMUNI9 ZMUNI1_PCT 664.56795   
    QMUNI9 ZMUNI2_PCT 951.112807  
    QMUNI9 ZMUNI3_PCT 754.96436   
    QMUNI9 ZMUNI4_PCT 652.88544   
    QMUNI9 ZMUNI5_PCT 316.83445   
    QMUNI9 ZMUNI6_PCT 346.42219   
    QMUNI9 ZMUNI7_PCT 1031.97098  
    QMUNI9 ZMUNI8_PCT 1545.66765  
    QMUNI9 ZMUNI9_PCT 23949.32508 
RHS
    RHS ZMUNI1_PCT  -0.36917314
    RHS ZMUNI2_PCT  -0.68848894
    RHS ZMUNI3_PCT  -0.6254469 
    RHS ZMUNI4_PCT  -0.23499249
    RHS ZMUNI5_PCT  -1.37203141
    RHS ZMUNI6_PCT  -1.0609906 
    RHS ZMUNI7_PCT 0.3840203304
    RHS ZMUNI8_PCT 0.9450022782
    RHS ZMUNI9_PCT 1.0021476243
BOUNDS
 LO BOUND QMUNI1 -0.00143197 
 UP BOUND QMUNI1      1.1e+10
 LO BOUND QMUNI2 -0.00105573 
 UP BOUND QMUNI2      1.1e+10
 LO BOUND QMUNI3 -0.001127774
 UP BOUND QMUNI3      1.1e+10
 LO BOUND QMUNI4 -0.000365196
 UP BOUND QMUNI4      1.1e+10
 LO BOUND QMUNI5 -0.001084   
 UP BOUND QMUNI5      1.1e+10
 LO BOUND QMUNI6 -0.001265615
 UP BOUND QMUNI6      1.1e+10
 LO BOUND QMUNI7 -0.000934861
 UP BOUND QMUNI7      1.1e+10
 LO BOUND QMUNI8 -0.001014755
 UP BOUND QMUNI8      1.1e+10
 LO BOUND QMUNI9 -0.001200666
 UP BOUND QMUNI9      1.1e+10
ENDATA
